
  27    0


   0  14 2 3 4 5 6 7 8 9 12 13 14 15 25 26 
   6   6 24 23 19 17 16 11 
   9   4 24 21 17 16 
   8   2 18 10 
   3   2 23 17 
   4   2 22 16 
   3   2 22 20 
   5   2 17 16 
   7   2 21 20 
   3   1 16 
   1   1 18 
   9   1 18 
   2   1 17 
   1   1 19 
   3   1 16 
   8   1 27
   3   1 27
   8   1 27
   9   1 27
  10   1 27
   9   1 27
   3   1 27
   9   1 27
   6   1 27
   1   1 27
   1   1 27
   0   0 
